p cnf 13 49
-1 -2 -8 0
4 11 -12 0
4 9 -13 0
-1 8 12 0
4 5 6 0
6 7 -13 0
2 5 12 0
-1 7 9 0
-5 6 8 0
-4 6 -11 0
-3 -8 13 0
7 -11 13 0
-4 -8 11 0
2 -8 9 0
3 -8 -9 0
3 -4 13 0
-6 7 9 0
-1 -9 13 0
-2 5 -6 0
3 -10 -12 0
3 -6 10 0
2 7 -12 0
-4 -8 9 0
4 -7 -9 0
-5 -10 -13 0
1 -2 -7 0
8 -10 12 0
-2 4 10 0
1 -7 8 0
-1 -6 -7 0
-2 6 -8 0
1 8 9 0
1 3 5 0
-2 -6 -12 0
-5 8 -10 0
-2 -9 -12 0
1 -3 -5 0
-7 10 13 0
6 -9 13 0
6 7 -9 0
-1 -6 8 0
1 -4 13 0
-2 5 -11 0
-5 -10 -12 0
-3 4 -10 0
4 -6 12 0
-5 -11 -12 0
2 7 12 0
3 -4 -5 0
